NAME: cuum970.tsp
TYPE: TSP
COMMENT: User-generated TSP file
DIMENSION: 970
EDGE_WEIGHT_TYPE: EUC_2D
NODE_COORD_SECTION
1 186.0 829.0
2 288.0 969.0
3 545.0 446.0
4 446.0 79.0
5 119.0 83.0
6 599.0 604.0
7 45.0 440.0
8 347.0 929.0
9 477.0 903.0
10 344.0 728.0
11 882.0 320.0
12 475.0 854.0
13 951.0 758.0
14 746.0 136.0
15 723.0 742.0
16 505.0 113.0
17 611.0 21.0
18 156.0 801.0
19 588.0 908.0
20 958.0 598.0
21 423.0 918.0
22 874.0 563.0
23 491.0 767.0
24 361.0 391.0
25 952.0 911.0
26 591.0 730.0
27 770.0 472.0
28 419.0 475.0
29 25.0 235.0
30 924.0 552.0
31 756.0 2.0
32 735.0 774.0
33 535.0 67.0
34 409.0 17.0
35 924.0 779.0
36 392.0 49.0
37 456.0 960.0
38 301.0 935.0
39 615.0 429.0
40 580.0 20.0
41 69.0 230.0
42 793.0 381.0
43 775.0 950.0
44 607.0 821.0
45 695.0 751.0
46 411.0 351.0
47 929.0 26.0
48 679.0 560.0
49 274.0 603.0
50 890.0 935.0
51 426.0 390.0
52 242.0 746.0
53 536.0 85.0
54 42.0 959.0
55 757.0 126.0
56 71.0 269.0
57 352.0 214.0
58 371.0 605.0
59 953.0 93.0
60 160.0 485.0
61 941.0 57.0
62 858.0 797.0
63 533.0 860.0
64 610.0 725.0
65 498.0 413.0
66 422.0 483.0
67 226.0 787.0
68 299.0 107.0
69 267.0 757.0
70 512.0 76.0
71 627.0 299.0
72 596.0 518.0
73 715.0 385.0
74 415.0 83.0
75 382.0 301.0
76 928.0 688.0
77 390.0 22.0
78 835.0 343.0
79 953.0 671.0
80 481.0 559.0
81 148.0 61.0
82 931.0 581.0
83 894.0 444.0
84 795.0 816.0
85 534.0 617.0
86 612.0 324.0
87 421.0 703.0
88 770.0 947.0
89 846.0 752.0
90 440.0 208.0
91 912.0 744.0
92 512.0 31.0
93 803.0 574.0
94 599.0 602.0
95 273.0 104.0
96 120.0 204.0
97 166.0 503.0
98 116.0 665.0
99 664.0 297.0
100 595.0 543.0
101 509.0 857.0
102 65.0 118.0
103 36.0 791.0
104 583.0 127.0
105 93.0 729.0
106 534.0 253.0
107 82.0 812.0
108 899.0 259.0
109 530.0 395.0
110 501.0 2.0
111 899.0 372.0
112 524.0 531.0
113 691.0 46.0
114 94.0 718.0
115 37.0 221.0
116 601.0 763.0
117 954.0 459.0
118 711.0 681.0
119 499.0 359.0
120 682.0 164.0
121 896.0 881.0
122 479.0 410.0
123 420.0 115.0
124 203.0 453.0
125 493.0 430.0
126 199.0 156.0
127 813.0 414.0
128 632.0 265.0
129 907.0 657.0
130 901.0 248.0
131 947.0 484.0
132 419.0 229.0
133 368.0 767.0
134 831.0 117.0
135 400.0 438.0
136 267.0 792.0
137 333.0 159.0
138 133.0 569.0
139 201.0 905.0
140 48.0 625.0
141 375.0 945.0
142 336.0 154.0
143 391.0 212.0
144 959.0 377.0
145 24.0 122.0
146 324.0 504.0
147 557.0 687.0
148 666.0 533.0
149 172.0 654.0
150 89.0 360.0
151 368.0 121.0
152 432.0 362.0
153 352.0 301.0
154 775.0 429.0
155 771.0 174.0
156 948.0 406.0
157 536.0 514.0
158 238.0 891.0
159 357.0 444.0
160 187.0 277.0
161 811.0 661.0
162 40.0 107.0
163 449.0 770.0
164 961.0 239.0
165 860.0 683.0
166 76.0 647.0
167 4.0 250.0
168 953.0 294.0
169 654.0 343.0
170 270.0 803.0
171 830.0 509.0
172 168.0 389.0
173 486.0 565.0
174 499.0 66.0
175 563.0 290.0
176 44.0 516.0
177 664.0 8.0
178 216.0 278.0
179 561.0 185.0
180 709.0 413.0
181 774.0 838.0
182 527.0 418.0
183 127.0 748.0
184 460.0 192.0
185 74.0 395.0
186 21.0 208.0
187 619.0 230.0
188 613.0 399.0
189 242.0 331.0
190 787.0 751.0
191 897.0 159.0
192 930.0 457.0
193 39.0 574.0
194 339.0 37.0
195 777.0 126.0
196 329.0 580.0
197 667.0 140.0
198 313.0 597.0
199 8.0 757.0
200 672.0 847.0
201 697.0 938.0
202 314.0 836.0
203 57.0 7.0
204 42.0 438.0
205 671.0 578.0
206 276.0 628.0
207 771.0 761.0
208 545.0 286.0
209 45.0 700.0
210 812.0 612.0
211 935.0 800.0
212 878.0 290.0
213 709.0 632.0
214 466.0 768.0
215 105.0 457.0
216 871.0 559.0
217 722.0 391.0
218 936.0 341.0
219 395.0 15.0
220 274.0 20.0
221 211.0 970.0
222 284.0 596.0
223 698.0 858.0
224 480.0 189.0
225 252.0 97.0
226 215.0 86.0
227 431.0 179.0
228 311.0 78.0
229 795.0 957.0
230 339.0 854.0
231 964.0 501.0
232 218.0 510.0
233 360.0 955.0
234 564.0 112.0
235 793.0 398.0
236 732.0 142.0
237 248.0 930.0
238 943.0 869.0
239 99.0 898.0
240 168.0 141.0
241 542.0 847.0
242 880.0 874.0
243 39.0 188.0
244 293.0 689.0
245 803.0 66.0
246 814.0 155.0
247 444.0 602.0
248 174.0 326.0
249 481.0 769.0
250 301.0 936.0
251 72.0 342.0
252 802.0 320.0
253 167.0 944.0
254 927.0 137.0
255 634.0 674.0
256 533.0 238.0
257 135.0 633.0
258 238.0 879.0
259 736.0 803.0
260 414.0 75.0
261 538.0 312.0
262 68.0 928.0
263 717.0 871.0
264 567.0 759.0
265 338.0 815.0
266 438.0 313.0
267 218.0 769.0
268 669.0 244.0
269 430.0 933.0
270 911.0 71.0
271 775.0 107.0
272 942.0 831.0
273 413.0 803.0
274 759.0 855.0
275 520.0 394.0
276 624.0 312.0
277 850.0 63.0
278 645.0 299.0
279 170.0 371.0
280 68.0 168.0
281 31.0 947.0
282 627.0 936.0
283 650.0 162.0
284 625.0 708.0
285 234.0 78.0
286 869.0 833.0
287 186.0 477.0
288 414.0 631.0
289 869.0 530.0
290 616.0 918.0
291 952.0 593.0
292 216.0 950.0
293 410.0 249.0
294 222.0 196.0
295 807.0 312.0
296 151.0 661.0
297 869.0 913.0
298 780.0 960.0
299 198.0 469.0
300 765.0 21.0
301 795.0 228.0
302 604.0 692.0
303 390.0 340.0
304 826.0 599.0
305 588.0 679.0
306 25.0 823.0
307 291.0 778.0
308 297.0 195.0
309 500.0 844.0
310 887.0 185.0
311 774.0 929.0
312 175.0 407.0
313 1.0 621.0
314 857.0 290.0
315 571.0 905.0
316 913.0 800.0
317 917.0 674.0
318 634.0 22.0
319 927.0 909.0
320 350.0 564.0
321 358.0 199.0
322 494.0 273.0
323 424.0 230.0
324 313.0 818.0
325 315.0 97.0
326 817.0 585.0
327 433.0 361.0
328 351.0 933.0
329 640.0 150.0
330 474.0 740.0
331 161.0 115.0
332 822.0 616.0
333 866.0 496.0
334 603.0 761.0
335 680.0 714.0
336 501.0 259.0
337 581.0 58.0
338 726.0 429.0
339 413.0 500.0
340 70.0 70.0
341 587.0 688.0
342 856.0 525.0
343 383.0 245.0
344 23.0 646.0
345 119.0 668.0
346 110.0 586.0
347 153.0 633.0
348 107.0 861.0
349 20.0 355.0
350 99.0 666.0
351 842.0 865.0
352 59.0 466.0
353 555.0 503.0
354 963.0 715.0
355 602.0 288.0
356 932.0 157.0
357 440.0 472.0
358 444.0 743.0
359 651.0 65.0
360 119.0 794.0
361 400.0 634.0
362 329.0 265.0
363 231.0 769.0
364 107.0 624.0
365 877.0 101.0
366 730.0 458.0
367 423.0 350.0
368 335.0 243.0
369 913.0 759.0
370 446.0 763.0
371 236.0 68.0
372 511.0 494.0
373 861.0 235.0
374 465.0 315.0
375 231.0 815.0
376 196.0 543.0
377 97.0 470.0
378 740.0 580.0
379 562.0 360.0
380 725.0 219.0
381 824.0 583.0
382 792.0 251.0
383 459.0 786.0
384 667.0 100.0
385 377.0 78.0
386 331.0 119.0
387 226.0 763.0
388 881.0 926.0
389 739.0 332.0
390 240.0 726.0
391 814.0 737.0
392 494.0 312.0
393 691.0 965.0
394 353.0 359.0
395 802.0 98.0
396 485.0 103.0
397 761.0 104.0
398 487.0 679.0
399 498.0 708.0
400 472.0 237.0
401 848.0 776.0
402 204.0 948.0
403 771.0 525.0
404 623.0 892.0
405 864.0 357.0
406 888.0 31.0
407 2.0 278.0
408 651.0 894.0
409 150.0 264.0
410 610.0 946.0
411 578.0 369.0
412 646.0 547.0
413 66.0 121.0
414 536.0 140.0
415 135.0 706.0
416 97.0 422.0
417 827.0 658.0
418 322.0 307.0
419 267.0 44.0
420 50.0 871.0
421 178.0 377.0
422 66.0 541.0
423 745.0 788.0
424 896.0 467.0
425 929.0 626.0
426 851.0 182.0
427 821.0 323.0
428 810.0 414.0
429 966.0 709.0
430 578.0 548.0
431 708.0 156.0
432 548.0 651.0
433 522.0 389.0
434 182.0 617.0
435 40.0 28.0
436 489.0 193.0
437 513.0 31.0
438 362.0 709.0
439 116.0 350.0
440 37.0 323.0
441 34.0 379.0
442 679.0 670.0
443 567.0 689.0
444 726.0 133.0
445 469.0 97.0
446 814.0 57.0
447 826.0 722.0
448 603.0 444.0
449 447.0 438.0
450 716.0 138.0
451 206.0 102.0
452 117.0 870.0
453 345.0 403.0
454 234.0 684.0
455 310.0 791.0
456 719.0 484.0
457 767.0 476.0
458 408.0 865.0
459 69.0 908.0
460 895.0 333.0
461 292.0 679.0
462 583.0 53.0
463 230.0 351.0
464 262.0 713.0
465 572.0 629.0
466 606.0 645.0
467 252.0 168.0
468 129.0 488.0
469 881.0 512.0
470 18.0 462.0
471 916.0 922.0
472 152.0 857.0
473 658.0 605.0
474 227.0 676.0
475 93.0 177.0
476 551.0 920.0
477 416.0 780.0
478 246.0 411.0
479 33.0 660.0
480 464.0 101.0
481 660.0 265.0
482 747.0 277.0
483 541.0 360.0
484 433.0 462.0
485 146.0 701.0
486 142.0 735.0
487 189.0 749.0
488 242.0 371.0
489 828.0 837.0
490 808.0 400.0
491 4.0 664.0
492 726.0 891.0
493 263.0 403.0
494 559.0 661.0
495 248.0 179.0
496 422.0 221.0
497 516.0 618.0
498 568.0 207.0
499 759.0 70.0
500 220.0 5.0
501 223.0 820.0
502 742.0 845.0
503 437.0 246.0
504 256.0 670.0
505 132.0 107.0
506 654.0 210.0
507 625.0 826.0
508 98.0 750.0
509 642.0 952.0
510 812.0 125.0
511 738.0 495.0
512 406.0 616.0
513 487.0 828.0
514 829.0 9.0
515 567.0 659.0
516 576.0 401.0
517 44.0 750.0
518 335.0 286.0
519 516.0 571.0
520 385.0 362.0
521 858.0 777.0
522 759.0 509.0
523 961.0 674.0
524 770.0 461.0
525 629.0 362.0
526 808.0 471.0
527 707.0 686.0
528 581.0 452.0
529 212.0 51.0
530 51.0 517.0
531 42.0 2.0
532 710.0 105.0
533 67.0 170.0
534 782.0 261.0
535 906.0 911.0
536 684.0 196.0
537 792.0 249.0
538 844.0 31.0
539 666.0 865.0
540 298.0 646.0
541 695.0 494.0
542 313.0 113.0
543 336.0 917.0
544 579.0 518.0
545 759.0 67.0
546 364.0 300.0
547 238.0 236.0
548 533.0 61.0
549 142.0 645.0
550 410.0 390.0
551 96.0 57.0
552 851.0 86.0
553 590.0 28.0
554 745.0 738.0
555 411.0 250.0
556 768.0 719.0
557 468.0 501.0
558 209.0 893.0
559 290.0 490.0
560 340.0 174.0
561 213.0 609.0
562 420.0 880.0
563 48.0 774.0
564 725.0 898.0
565 749.0 543.0
566 264.0 948.0
567 216.0 785.0
568 605.0 189.0
569 304.0 157.0
570 929.0 780.0
571 459.0 896.0
572 383.0 499.0
573 90.0 393.0
574 689.0 711.0
575 127.0 525.0
576 747.0 293.0
577 138.0 401.0
578 39.0 730.0
579 706.0 787.0
580 118.0 496.0
581 253.0 549.0
582 911.0 577.0
583 334.0 328.0
584 836.0 244.0
585 516.0 600.0
586 607.0 15.0
587 84.0 699.0
588 757.0 529.0
589 851.0 25.0
590 415.0 798.0
591 627.0 203.0
592 800.0 966.0
593 362.0 113.0
594 570.0 103.0
595 345.0 109.0
596 37.0 232.0
597 356.0 345.0
598 781.0 511.0
599 15.0 874.0
600 301.0 723.0
601 150.0 962.0
602 749.0 103.0
603 871.0 679.0
604 291.0 858.0
605 370.0 883.0
606 150.0 223.0
607 184.0 124.0
608 941.0 763.0
609 348.0 245.0
610 613.0 518.0
611 445.0 38.0
612 959.0 702.0
613 728.0 686.0
614 660.0 844.0
615 356.0 271.0
616 884.0 864.0
617 66.0 804.0
618 251.0 774.0
619 61.0 948.0
620 797.0 600.0
621 425.0 596.0
622 449.0 300.0
623 196.0 683.0
624 391.0 879.0
625 725.0 683.0
626 510.0 98.0
627 454.0 428.0
628 381.0 301.0
629 820.0 373.0
630 815.0 386.0
631 896.0 930.0
632 766.0 849.0
633 102.0 755.0
634 99.0 874.0
635 901.0 276.0
636 59.0 119.0
637 713.0 538.0
638 664.0 714.0
639 936.0 299.0
640 711.0 796.0
641 793.0 349.0
642 374.0 343.0
643 173.0 51.0
644 84.0 629.0
645 129.0 51.0
646 32.0 952.0
647 153.0 14.0
648 23.0 911.0
649 621.0 516.0
650 732.0 649.0
651 516.0 42.0
652 905.0 638.0
653 697.0 728.0
654 665.0 7.0
655 12.0 441.0
656 868.0 187.0
657 840.0 487.0
658 877.0 440.0
659 949.0 154.0
660 161.0 412.0
661 308.0 440.0
662 769.0 760.0
663 205.0 593.0
664 361.0 512.0
665 953.0 685.0
666 279.0 223.0
667 879.0 485.0
668 726.0 697.0
669 78.0 537.0
670 413.0 77.0
671 134.0 939.0
672 816.0 247.0
673 248.0 895.0
674 865.0 507.0
675 628.0 272.0
676 444.0 105.0
677 380.0 105.0
678 654.0 950.0
679 230.0 424.0
680 52.0 757.0
681 137.0 244.0
682 520.0 339.0
683 707.0 464.0
684 781.0 608.0
685 186.0 103.0
686 289.0 491.0
687 857.0 151.0
688 546.0 304.0
689 823.0 211.0
690 863.0 12.0
691 376.0 551.0
692 414.0 401.0
693 781.0 506.0
694 207.0 421.0
695 770.0 819.0
696 141.0 243.0
697 857.0 825.0
698 74.0 359.0
699 310.0 85.0
700 240.0 609.0
701 333.0 340.0
702 252.0 227.0
703 475.0 788.0
704 639.0 817.0
705 718.0 490.0
706 53.0 313.0
707 667.0 274.0
708 428.0 326.0
709 791.0 190.0
710 293.0 72.0
711 597.0 540.0
712 2.0 526.0
713 246.0 734.0
714 194.0 19.0
715 138.0 236.0
716 519.0 842.0
717 736.0 836.0
718 528.0 41.0
719 628.0 368.0
720 635.0 786.0
721 303.0 404.0
722 58.0 919.0
723 252.0 364.0
724 87.0 56.0
725 75.0 37.0
726 910.0 878.0
727 834.0 556.0
728 239.0 735.0
729 2.0 425.0
730 629.0 812.0
731 893.0 842.0
732 182.0 149.0
733 758.0 956.0
734 784.0 39.0
735 379.0 895.0
736 792.0 869.0
737 161.0 624.0
738 354.0 473.0
739 527.0 242.0
740 509.0 885.0
741 581.0 450.0
742 701.0 12.0
743 586.0 215.0
744 507.0 637.0
745 305.0 421.0
746 787.0 257.0
747 109.0 205.0
748 268.0 80.0
749 587.0 931.0
750 907.0 177.0
751 308.0 577.0
752 785.0 359.0
753 551.0 370.0
754 504.0 815.0
755 927.0 903.0
756 271.0 9.0
757 356.0 729.0
758 303.0 902.0
759 76.0 958.0
760 39.0 606.0
761 431.0 379.0
762 250.0 732.0
763 788.0 372.0
764 264.0 331.0
765 968.0 14.0
766 254.0 116.0
767 666.0 882.0
768 614.0 228.0
769 417.0 769.0
770 942.0 917.0
771 190.0 705.0
772 512.0 765.0
773 777.0 377.0
774 696.0 258.0
775 136.0 191.0
776 539.0 724.0
777 39.0 13.0
778 291.0 377.0
779 920.0 352.0
780 291.0 713.0
781 105.0 234.0
782 25.0 951.0
783 535.0 724.0
784 923.0 450.0
785 556.0 166.0
786 257.0 307.0
787 525.0 269.0
788 853.0 391.0
789 877.0 621.0
790 845.0 537.0
791 616.0 464.0
792 198.0 963.0
793 34.0 210.0
794 547.0 143.0
795 475.0 473.0
796 961.0 944.0
797 126.0 897.0
798 509.0 155.0
799 268.0 98.0
800 20.0 585.0
801 704.0 907.0
802 652.0 651.0
803 882.0 625.0
804 53.0 823.0
805 815.0 423.0
806 297.0 558.0
807 295.0 505.0
808 749.0 706.0
809 436.0 152.0
810 692.0 951.0
811 966.0 193.0
812 957.0 708.0
813 602.0 440.0
814 329.0 680.0
815 285.0 159.0
816 578.0 394.0
817 315.0 941.0
818 219.0 8.0
819 956.0 613.0
820 607.0 809.0
821 854.0 434.0
822 874.0 384.0
823 846.0 334.0
824 51.0 175.0
825 591.0 153.0
826 169.0 597.0
827 202.0 146.0
828 441.0 599.0
829 369.0 88.0
830 106.0 156.0
831 559.0 239.0
832 755.0 460.0
833 746.0 528.0
834 856.0 844.0
835 120.0 121.0
836 106.0 818.0
837 767.0 192.0
838 835.0 740.0
839 718.0 529.0
840 452.0 449.0
841 62.0 545.0
842 387.0 364.0
843 296.0 120.0
844 809.0 915.0
845 694.0 300.0
846 374.0 297.0
847 18.0 671.0
848 197.0 875.0
849 669.0 654.0
850 23.0 623.0
851 299.0 751.0
852 927.0 296.0
853 889.0 281.0
854 91.0 282.0
855 466.0 27.0
856 703.0 842.0
857 225.0 300.0
858 182.0 260.0
859 634.0 517.0
860 794.0 466.0
861 160.0 532.0
862 517.0 276.0
863 111.0 861.0
864 408.0 493.0
865 12.0 696.0
866 202.0 271.0
867 668.0 894.0
868 229.0 249.0
869 43.0 521.0
870 527.0 356.0
871 706.0 257.0
872 885.0 330.0
873 255.0 600.0
874 279.0 354.0
875 191.0 743.0
876 62.0 243.0
877 660.0 804.0
878 172.0 533.0
879 45.0 876.0
880 169.0 849.0
881 847.0 648.0
882 810.0 970.0
883 841.0 801.0
884 226.0 631.0
885 592.0 217.0
886 874.0 32.0
887 719.0 225.0
888 787.0 510.0
889 909.0 210.0
890 439.0 354.0
891 230.0 453.0
892 702.0 330.0
893 502.0 150.0
894 332.0 952.0
895 730.0 442.0
896 961.0 620.0
897 428.0 805.0
898 375.0 60.0
899 776.0 935.0
900 866.0 45.0
901 295.0 486.0
902 357.0 666.0
903 287.0 548.0
904 538.0 800.0
905 866.0 443.0
906 251.0 392.0
907 191.0 593.0
908 22.0 282.0
909 646.0 372.0
910 272.0 526.0
911 344.0 512.0
912 812.0 662.0
913 296.0 890.0
914 415.0 913.0
915 704.0 959.0
916 101.0 149.0
917 291.0 511.0
918 921.0 314.0
919 841.0 914.0
920 387.0 450.0
921 961.0 632.0
922 439.0 802.0
923 265.0 188.0
924 813.0 879.0
925 111.0 892.0
926 87.0 436.0
927 852.0 522.0
928 652.0 954.0
929 470.0 507.0
930 671.0 416.0
931 325.0 315.0
932 771.0 376.0
933 138.0 288.0
934 447.0 494.0
935 476.0 564.0
936 633.0 736.0
937 133.0 460.0
938 939.0 834.0
939 960.0 575.0
940 460.0 542.0
941 398.0 404.0
942 377.0 451.0
943 422.0 223.0
944 1.0 590.0
945 478.0 60.0
946 120.0 704.0
947 723.0 678.0
948 725.0 741.0
949 911.0 467.0
950 233.0 704.0
951 232.0 923.0
952 289.0 677.0
953 1.0 277.0
954 252.0 667.0
955 109.0 679.0
956 619.0 544.0
957 804.0 141.0
958 29.0 617.0
959 71.0 786.0
960 410.0 749.0
961 242.0 787.0
962 523.0 853.0
963 872.0 34.0
964 883.0 793.0
965 536.0 93.0
966 559.0 65.0
967 565.0 687.0
968 893.0 908.0
969 251.0 471.0
970 65.0 310.0
EOF





